Running HiGHS 1.14.0 (git hash: 7df0786): Copyright (c) 2026 under Apache 2.0 license terms
Using BLAS: OpenBLAS 
Command line parsed using CLI11 2.5.0: Copyright (c) 2017-2025 University of Cincinnati
Set option solution_file to "C:\Users\mmass\AppData\Local\Temp\pns_4339294116500109446.sol"
MIP pns_8638850465496685342 has 9 rows; 12 cols; 21 nonzeros; 6 integer variables (6 binary)
Coefficient ranges:
  Matrix  [1e+00, 1e+03]
  Cost    [1e+00, 4e+00]
  Bound   [1e+00, 1e+00]
  RHS     [1e+01, 1e+01]
Presolving model
9 rows, 12 cols, 21 nonzeros 0s
8 rows, 11 cols, 19 nonzeros 0s
Presolve reductions: rows 8(-1); columns 11(-1); nonzeros 19(-2) 

Solving MIP model with:
   8 rows
   11 cols (6 binary, 0 integer, 0 implied int., 5 continuous, 0 domain fixed)
   19 nonzeros

Src: B => Branching; C => Central rounding; F => Feasibility pump; H => Heuristic;
     I => Shifting; J => Feasibility jump; L => Sub-MIP; P => Empty MIP; R => Randomized rounding;
     S => Solve LP; T => Evaluate node; U => Unbounded; X => User solution; Y => HiGHS solution;
     Z => ZI Round; l => Trivial lower; p => Trivial point; u => Trivial upper; z => Trivial zero

        Nodes      |    B&B Tree     |            Objective Bounds              |  Dynamic Constraints |       Work      
Src  Proc. InQueue |  Leaves   Expl. | BestBound       BestSol              Gap |   Cuts   InLp Confl. | LpIters     Time

 J       0       0         0   0.00%   -inf            67                 Large        0      0      0         0     0.0s
 S       0       0         0   0.00%   0               24               100.00%        0      0      0         0     0.0s

16.7% inactive integer columns, restarting
Model after restart has 6 rows, 8 cols (4 bin., 0 int., 0 impl., 4 cont., 0 dom.fix.), and 14 nonzeros

         0       0         0   0.00%   20.04           24                16.50%        0      0      0         2     0.0s
         0       0         0   0.00%   20.59701493     24                14.18%        0      0      0         2     0.0s
         1       0         1 100.00%   24              24                 0.00%        0      0      0         4     0.0s

Solving report
  Model             pns_8638850465496685342
  Status            Optimal
  Primal bound      24
  Dual bound        24
  Gap               0% (tolerance: 0.01%)
  P-D integral      0.00368515160097
  Solution status   feasible
                    24 (objective)
                    0 (bound viol.)
                    0 (int. viol.)
                    0 (row viol.)
  Timing            0.05
  Max sub-MIP depth 0
  Nodes             1
  Repair LPs        0
  LP iterations     4
                    0 (strong br.)
                    2 (separation)
                    0 (heuristics)
Writing the solution to C:\Users\mmass\AppData\Local\Temp\pns_4339294116500109446.sol
Running HiGHS 1.14.0 (git hash: 7df0786): Copyright (c) 2026 under Apache 2.0 license terms
Using BLAS: OpenBLAS 
Command line parsed using CLI11 2.5.0: Copyright (c) 2017-2025 University of Cincinnati
Set option solution_file to "C:\Users\mmass\AppData\Local\Temp\pns_7063864086761208757.sol"
MIP pns_16022844286244993339 has 9 rows; 12 cols; 21 nonzeros; 6 integer variables (6 binary)
Coefficient ranges:
  Matrix  [1e+00, 1e+03]
  Cost    [1e+00, 4e+00]
  Bound   [1e+00, 1e+00]
  RHS     [1e+01, 1e+01]
Presolving model
9 rows, 12 cols, 21 nonzeros 0s
8 rows, 11 cols, 19 nonzeros 0s
Presolve reductions: rows 8(-1); columns 11(-1); nonzeros 19(-2) 

Solving MIP model with:
   8 rows
   11 cols (6 binary, 0 integer, 0 implied int., 5 continuous, 0 domain fixed)
   19 nonzeros

Src: B => Branching; C => Central rounding; F => Feasibility pump; H => Heuristic;
     I => Shifting; J => Feasibility jump; L => Sub-MIP; P => Empty MIP; R => Randomized rounding;
     S => Solve LP; T => Evaluate node; U => Unbounded; X => User solution; Y => HiGHS solution;
     Z => ZI Round; l => Trivial lower; p => Trivial point; u => Trivial upper; z => Trivial zero

        Nodes      |    B&B Tree     |            Objective Bounds              |  Dynamic Constraints |       Work      
Src  Proc. InQueue |  Leaves   Expl. | BestBound       BestSol              Gap |   Cuts   InLp Confl. | LpIters     Time

 J       0       0         0   0.00%   -inf            67                 Large        0      0      0         0     0.0s
 S       0       0         0   0.00%   0               24               100.00%        0      0      0         0     0.0s

16.7% inactive integer columns, restarting
Model after restart has 6 rows, 8 cols (4 bin., 0 int., 0 impl., 4 cont., 0 dom.fix.), and 14 nonzeros

         0       0         0   0.00%   20.04           24                16.50%        0      0      0         2     0.0s
         0       0         0   0.00%   20.59701493     24                14.18%        0      0      0         2     0.0s
         1       0         1 100.00%   24              24                 0.00%        0      0      0         4     0.0s

Solving report
  Model             pns_16022844286244993339
  Status            Optimal
  Primal bound      24
  Dual bound        24
  Gap               0% (tolerance: 0.01%)
  P-D integral      0.00340808178712
  Solution status   feasible
                    24 (objective)
                    0 (bound viol.)
                    0 (int. viol.)
                    0 (row viol.)
  Timing            0.04
  Max sub-MIP depth 0
  Nodes             1
  Repair LPs        0
  LP iterations     4
                    0 (strong br.)
                    2 (separation)
                    0 (heuristics)
Writing the solution to C:\Users\mmass\AppData\Local\Temp\pns_7063864086761208757.sol
Running HiGHS 1.14.0 (git hash: 7df0786): Copyright (c) 2026 under Apache 2.0 license terms
Using BLAS: OpenBLAS 
Command line parsed using CLI11 2.5.0: Copyright (c) 2017-2025 University of Cincinnati
Set option solution_file to "C:\Users\mmass\AppData\Local\Temp\pns_6596215183451870914.sol"
MIP pns_17102921776257628105 has 9 rows; 12 cols; 21 nonzeros; 6 integer variables (6 binary)
Coefficient ranges:
  Matrix  [1e+00, 1e+03]
  Cost    [1e+00, 4e+00]
  Bound   [1e+00, 1e+00]
  RHS     [1e+01, 1e+01]
Presolving model
9 rows, 12 cols, 21 nonzeros 0s
8 rows, 11 cols, 19 nonzeros 0s
Presolve reductions: rows 8(-1); columns 11(-1); nonzeros 19(-2) 

Solving MIP model with:
   8 rows
   11 cols (6 binary, 0 integer, 0 implied int., 5 continuous, 0 domain fixed)
   19 nonzeros

Src: B => Branching; C => Central rounding; F => Feasibility pump; H => Heuristic;
     I => Shifting; J => Feasibility jump; L => Sub-MIP; P => Empty MIP; R => Randomized rounding;
     S => Solve LP; T => Evaluate node; U => Unbounded; X => User solution; Y => HiGHS solution;
     Z => ZI Round; l => Trivial lower; p => Trivial point; u => Trivial upper; z => Trivial zero

        Nodes      |    B&B Tree     |            Objective Bounds              |  Dynamic Constraints |       Work      
Src  Proc. InQueue |  Leaves   Expl. | BestBound       BestSol              Gap |   Cuts   InLp Confl. | LpIters     Time

 J       0       0         0   0.00%   -inf            67                 Large        0      0      0         0     0.0s
 S       0       0         0   0.00%   0               24               100.00%        0      0      0         0     0.0s

16.7% inactive integer columns, restarting
Model after restart has 6 rows, 8 cols (4 bin., 0 int., 0 impl., 4 cont., 0 dom.fix.), and 14 nonzeros

         0       0         0   0.00%   20.04           24                16.50%        0      0      0         2     0.0s
         0       0         0   0.00%   20.59701493     24                14.18%        0      0      0         2     0.0s
         1       0         1 100.00%   24              24                 0.00%        0      0      0         4     0.0s

Solving report
  Model             pns_17102921776257628105
  Status            Optimal
  Primal bound      24
  Dual bound        24
  Gap               0% (tolerance: 0.01%)
  P-D integral      0.00290670451509
  Solution status   feasible
                    24 (objective)
                    0 (bound viol.)
                    0 (int. viol.)
                    0 (row viol.)
  Timing            0.04
  Max sub-MIP depth 0
  Nodes             1
  Repair LPs        0
  LP iterations     4
                    0 (strong br.)
                    2 (separation)
                    0 (heuristics)
Writing the solution to C:\Users\mmass\AppData\Local\Temp\pns_6596215183451870914.sol
Running HiGHS 1.14.0 (git hash: 7df0786): Copyright (c) 2026 under Apache 2.0 license terms
Using BLAS: OpenBLAS 
Command line parsed using CLI11 2.5.0: Copyright (c) 2017-2025 University of Cincinnati
Set option solution_file to "C:\Users\mmass\AppData\Local\Temp\pns_12383134439326052727.sol"
MIP pns_18105116427538491833 has 9 rows; 12 cols; 21 nonzeros; 6 integer variables (6 binary)
Coefficient ranges:
  Matrix  [1e+00, 1e+03]
  Cost    [1e+00, 4e+00]
  Bound   [1e+00, 1e+00]
  RHS     [1e+01, 1e+01]
Presolving model
9 rows, 12 cols, 21 nonzeros 0s
8 rows, 11 cols, 19 nonzeros 0s
Presolve reductions: rows 8(-1); columns 11(-1); nonzeros 19(-2) 

Solving MIP model with:
   8 rows
   11 cols (6 binary, 0 integer, 0 implied int., 5 continuous, 0 domain fixed)
   19 nonzeros

Src: B => Branching; C => Central rounding; F => Feasibility pump; H => Heuristic;
     I => Shifting; J => Feasibility jump; L => Sub-MIP; P => Empty MIP; R => Randomized rounding;
     S => Solve LP; T => Evaluate node; U => Unbounded; X => User solution; Y => HiGHS solution;
     Z => ZI Round; l => Trivial lower; p => Trivial point; u => Trivial upper; z => Trivial zero

        Nodes      |    B&B Tree     |            Objective Bounds              |  Dynamic Constraints |       Work      
Src  Proc. InQueue |  Leaves   Expl. | BestBound       BestSol              Gap |   Cuts   InLp Confl. | LpIters     Time

 J       0       0         0   0.00%   -inf            67                 Large        0      0      0         0     0.0s
 S       0       0         0   0.00%   0               24               100.00%        0      0      0         0     0.0s

16.7% inactive integer columns, restarting
Model after restart has 6 rows, 8 cols (4 bin., 0 int., 0 impl., 4 cont., 0 dom.fix.), and 14 nonzeros

         0       0         0   0.00%   20.04           24                16.50%        0      0      0         2     0.0s
         0       0         0   0.00%   20.59701493     24                14.18%        0      0      0         2     0.0s
         1       0         1 100.00%   24              24                 0.00%        0      0      0         4     0.0s

Solving report
  Model             pns_18105116427538491833
  Status            Optimal
  Primal bound      24
  Dual bound        24
  Gap               0% (tolerance: 0.01%)
  P-D integral      0.00326532018501
  Solution status   feasible
                    24 (objective)
                    0 (bound viol.)
                    0 (int. viol.)
                    0 (row viol.)
  Timing            0.05
  Max sub-MIP depth 0
  Nodes             1
  Repair LPs        0
  LP iterations     4
                    0 (strong br.)
                    2 (separation)
                    0 (heuristics)
Writing the solution to C:\Users\mmass\AppData\Local\Temp\pns_12383134439326052727.sol
Running HiGHS 1.14.0 (git hash: 7df0786): Copyright (c) 2026 under Apache 2.0 license terms
Using BLAS: OpenBLAS 
Command line parsed using CLI11 2.5.0: Copyright (c) 2017-2025 University of Cincinnati
Set option solution_file to "C:\Users\mmass\AppData\Local\Temp\pns_17525877698829405895.sol"
MIP pns_16400813537598835946 has 9 rows; 12 cols; 21 nonzeros; 6 integer variables (6 binary)
Coefficient ranges:
  Matrix  [1e+00, 1e+03]
  Cost    [1e+00, 4e+00]
  Bound   [1e+00, 1e+00]
  RHS     [1e+01, 1e+01]
Presolving model
9 rows, 12 cols, 21 nonzeros 0s
8 rows, 11 cols, 19 nonzeros 0s
Presolve reductions: rows 8(-1); columns 11(-1); nonzeros 19(-2) 

Solving MIP model with:
   8 rows
   11 cols (6 binary, 0 integer, 0 implied int., 5 continuous, 0 domain fixed)
   19 nonzeros

Src: B => Branching; C => Central rounding; F => Feasibility pump; H => Heuristic;
     I => Shifting; J => Feasibility jump; L => Sub-MIP; P => Empty MIP; R => Randomized rounding;
     S => Solve LP; T => Evaluate node; U => Unbounded; X => User solution; Y => HiGHS solution;
     Z => ZI Round; l => Trivial lower; p => Trivial point; u => Trivial upper; z => Trivial zero

        Nodes      |    B&B Tree     |            Objective Bounds              |  Dynamic Constraints |       Work      
Src  Proc. InQueue |  Leaves   Expl. | BestBound       BestSol              Gap |   Cuts   InLp Confl. | LpIters     Time

 J       0       0         0   0.00%   -inf            67                 Large        0      0      0         0     0.0s
 S       0       0         0   0.00%   0               24               100.00%        0      0      0         0     0.0s

16.7% inactive integer columns, restarting
Model after restart has 6 rows, 8 cols (4 bin., 0 int., 0 impl., 4 cont., 0 dom.fix.), and 14 nonzeros

         0       0         0   0.00%   20.04           24                16.50%        0      0      0         2     0.0s
         0       0         0   0.00%   20.59701493     24                14.18%        0      0      0         2     0.0s
         1       0         1 100.00%   24              24                 0.00%        0      0      0         4     0.0s

Solving report
  Model             pns_16400813537598835946
  Status            Optimal
  Primal bound      24
  Dual bound        24
  Gap               0% (tolerance: 0.01%)
  P-D integral      0.00205952946195
  Solution status   feasible
                    24 (objective)
                    0 (bound viol.)
                    0 (int. viol.)
                    0 (row viol.)
  Timing            0.02
  Max sub-MIP depth 0
  Nodes             1
  Repair LPs        0
  LP iterations     4
                    0 (strong br.)
                    2 (separation)
                    0 (heuristics)
Writing the solution to C:\Users\mmass\AppData\Local\Temp\pns_17525877698829405895.sol
Running HiGHS 1.14.0 (git hash: 7df0786): Copyright (c) 2026 under Apache 2.0 license terms
Using BLAS: OpenBLAS 
Command line parsed using CLI11 2.5.0: Copyright (c) 2017-2025 University of Cincinnati
Set option solution_file to "C:\Users\jcgca\AppData\Local\Temp\pns_4475109349770463591.sol"
MIP pns_17723973258329855676 has 9 rows; 12 cols; 21 nonzeros; 6 integer variables (6 binary)
Coefficient ranges:
  Matrix  [1e+00, 1e+03]
  Cost    [1e+00, 4e+00]
  Bound   [1e+00, 1e+00]
  RHS     [1e+01, 1e+01]
Presolving model
9 rows, 12 cols, 21 nonzeros 0s
8 rows, 11 cols, 19 nonzeros 0s
Presolve reductions: rows 8(-1); columns 11(-1); nonzeros 19(-2) 

Solving MIP model with:
   8 rows
   11 cols (6 binary, 0 integer, 0 implied int., 5 continuous, 0 domain fixed)
   19 nonzeros

Src: B => Branching; C => Central rounding; F => Feasibility pump; H => Heuristic;
     I => Shifting; J => Feasibility jump; L => Sub-MIP; P => Empty MIP; R => Randomized rounding;
     S => Solve LP; T => Evaluate node; U => Unbounded; X => User solution; Y => HiGHS solution;
     Z => ZI Round; l => Trivial lower; p => Trivial point; u => Trivial upper; z => Trivial zero

        Nodes      |    B&B Tree     |            Objective Bounds              |  Dynamic Constraints |       Work      
Src  Proc. InQueue |  Leaves   Expl. | BestBound       BestSol              Gap |   Cuts   InLp Confl. | LpIters     Time

 J       0       0         0   0.00%   -inf            67                 Large        0      0      0         0     0.0s
 S       0       0         0   0.00%   0               24               100.00%        0      0      0         0     0.0s

16.7% inactive integer columns, restarting
Model after restart has 6 rows, 8 cols (4 bin., 0 int., 0 impl., 4 cont., 0 dom.fix.), and 14 nonzeros

         0       0         0   0.00%   20.04           24                16.50%        0      0      0         2     0.0s
         0       0         0   0.00%   20.59701493     24                14.18%        0      0      0         2     0.0s
         1       0         1 100.00%   24              24                 0.00%        0      0      0         4     0.0s

Solving report
  Model             pns_17723973258329855676
  Status            Optimal
  Primal bound      24
  Dual bound        24
  Gap               0% (tolerance: 0.01%)
  P-D integral      0.00296411478343
  Solution status   feasible
                    24 (objective)
                    0 (bound viol.)
                    0 (int. viol.)
                    0 (row viol.)
  Timing            0.03
  Max sub-MIP depth 0
  Nodes             1
  Repair LPs        0
  LP iterations     4
                    0 (strong br.)
                    2 (separation)
                    0 (heuristics)
Writing the solution to C:\Users\jcgca\AppData\Local\Temp\pns_4475109349770463591.sol
Running HiGHS 1.14.0 (git hash: 7df0786): Copyright (c) 2026 under Apache 2.0 license terms
Using BLAS: OpenBLAS 
Command line parsed using CLI11 2.5.0: Copyright (c) 2017-2025 University of Cincinnati
Set option solution_file to "C:\Users\jcgca\AppData\Local\Temp\pns_16062528696463436095.sol"
MIP pns_17466422097716360698 has 9 rows; 12 cols; 21 nonzeros; 6 integer variables (6 binary)
Coefficient ranges:
  Matrix  [1e+00, 1e+03]
  Cost    [1e+00, 4e+00]
  Bound   [1e+00, 1e+00]
  RHS     [1e+01, 1e+01]
Presolving model
9 rows, 12 cols, 21 nonzeros 0s
8 rows, 11 cols, 19 nonzeros 0s
Presolve reductions: rows 8(-1); columns 11(-1); nonzeros 19(-2) 

Solving MIP model with:
   8 rows
   11 cols (6 binary, 0 integer, 0 implied int., 5 continuous, 0 domain fixed)
   19 nonzeros

Src: B => Branching; C => Central rounding; F => Feasibility pump; H => Heuristic;
     I => Shifting; J => Feasibility jump; L => Sub-MIP; P => Empty MIP; R => Randomized rounding;
     S => Solve LP; T => Evaluate node; U => Unbounded; X => User solution; Y => HiGHS solution;
     Z => ZI Round; l => Trivial lower; p => Trivial point; u => Trivial upper; z => Trivial zero

        Nodes      |    B&B Tree     |            Objective Bounds              |  Dynamic Constraints |       Work      
Src  Proc. InQueue |  Leaves   Expl. | BestBound       BestSol              Gap |   Cuts   InLp Confl. | LpIters     Time

 J       0       0         0   0.00%   -inf            67                 Large        0      0      0         0     0.0s
 S       0       0         0   0.00%   0               24               100.00%        0      0      0         0     0.0s

16.7% inactive integer columns, restarting
Model after restart has 6 rows, 8 cols (4 bin., 0 int., 0 impl., 4 cont., 0 dom.fix.), and 14 nonzeros

         0       0         0   0.00%   20.04           24                16.50%        0      0      0         2     0.0s
         0       0         0   0.00%   20.59701493     24                14.18%        0      0      0         2     0.0s
         1       0         1 100.00%   24              24                 0.00%        0      0      0         4     0.0s

Solving report
  Model             pns_17466422097716360698
  Status            Optimal
  Primal bound      24
  Dual bound        24
  Gap               0% (tolerance: 0.01%)
  P-D integral      0.000980929305313
  Solution status   feasible
                    24 (objective)
                    0 (bound viol.)
                    0 (int. viol.)
                    0 (row viol.)
  Timing            0.02
  Max sub-MIP depth 0
  Nodes             1
  Repair LPs        0
  LP iterations     4
                    0 (strong br.)
                    2 (separation)
                    0 (heuristics)
Writing the solution to C:\Users\jcgca\AppData\Local\Temp\pns_16062528696463436095.sol
Running HiGHS 1.14.0 (git hash: 7df0786): Copyright (c) 2026 under Apache 2.0 license terms
Using BLAS: OpenBLAS 
Command line parsed using CLI11 2.5.0: Copyright (c) 2017-2025 University of Cincinnati
Set option solution_file to "C:\Users\jcgca\AppData\Local\Temp\pns_10456217059003091189.sol"
MIP pns_13008031165824118406 has 9 rows; 12 cols; 21 nonzeros; 6 integer variables (6 binary)
Coefficient ranges:
  Matrix  [1e+00, 1e+03]
  Cost    [1e+00, 4e+00]
  Bound   [1e+00, 1e+00]
  RHS     [1e+01, 1e+01]
Presolving model
9 rows, 12 cols, 21 nonzeros 0s
8 rows, 11 cols, 19 nonzeros 0s
Presolve reductions: rows 8(-1); columns 11(-1); nonzeros 19(-2) 

Solving MIP model with:
   8 rows
   11 cols (6 binary, 0 integer, 0 implied int., 5 continuous, 0 domain fixed)
   19 nonzeros

Src: B => Branching; C => Central rounding; F => Feasibility pump; H => Heuristic;
     I => Shifting; J => Feasibility jump; L => Sub-MIP; P => Empty MIP; R => Randomized rounding;
     S => Solve LP; T => Evaluate node; U => Unbounded; X => User solution; Y => HiGHS solution;
     Z => ZI Round; l => Trivial lower; p => Trivial point; u => Trivial upper; z => Trivial zero

        Nodes      |    B&B Tree     |            Objective Bounds              |  Dynamic Constraints |       Work      
Src  Proc. InQueue |  Leaves   Expl. | BestBound       BestSol              Gap |   Cuts   InLp Confl. | LpIters     Time

 J       0       0         0   0.00%   -inf            67                 Large        0      0      0         0     0.0s
 S       0       0         0   0.00%   0               24               100.00%        0      0      0         0     0.0s

16.7% inactive integer columns, restarting
Model after restart has 6 rows, 8 cols (4 bin., 0 int., 0 impl., 4 cont., 0 dom.fix.), and 14 nonzeros

         0       0         0   0.00%   20.04           24                16.50%        0      0      0         2     0.0s
         0       0         0   0.00%   20.59701493     24                14.18%        0      0      0         2     0.0s
         1       0         1 100.00%   24              24                 0.00%        0      0      0         4     0.0s

Solving report
  Model             pns_13008031165824118406
  Status            Optimal
  Primal bound      24
  Dual bound        24
  Gap               0% (tolerance: 0.01%)
  P-D integral      0.000845100812184
  Solution status   feasible
                    24 (objective)
                    0 (bound viol.)
                    0 (int. viol.)
                    0 (row viol.)
  Timing            0.01
  Max sub-MIP depth 0
  Nodes             1
  Repair LPs        0
  LP iterations     4
                    0 (strong br.)
                    2 (separation)
                    0 (heuristics)
Writing the solution to C:\Users\jcgca\AppData\Local\Temp\pns_10456217059003091189.sol
Running HiGHS 1.14.0 (git hash: 7df0786): Copyright (c) 2026 under Apache 2.0 license terms
Using BLAS: OpenBLAS 
Command line parsed using CLI11 2.5.0: Copyright (c) 2017-2025 University of Cincinnati
Set option solution_file to "C:\Users\jcgca\AppData\Local\Temp\pns_1104557040209382480.sol"
MIP pns_4632517209587689880 has 9 rows; 12 cols; 21 nonzeros; 6 integer variables (6 binary)
Coefficient ranges:
  Matrix  [1e+00, 1e+03]
  Cost    [1e+00, 4e+00]
  Bound   [1e+00, 1e+00]
  RHS     [1e+01, 1e+01]
Presolving model
9 rows, 12 cols, 21 nonzeros 0s
8 rows, 11 cols, 19 nonzeros 0s
Presolve reductions: rows 8(-1); columns 11(-1); nonzeros 19(-2) 

Solving MIP model with:
   8 rows
   11 cols (6 binary, 0 integer, 0 implied int., 5 continuous, 0 domain fixed)
   19 nonzeros

Src: B => Branching; C => Central rounding; F => Feasibility pump; H => Heuristic;
     I => Shifting; J => Feasibility jump; L => Sub-MIP; P => Empty MIP; R => Randomized rounding;
     S => Solve LP; T => Evaluate node; U => Unbounded; X => User solution; Y => HiGHS solution;
     Z => ZI Round; l => Trivial lower; p => Trivial point; u => Trivial upper; z => Trivial zero

        Nodes      |    B&B Tree     |            Objective Bounds              |  Dynamic Constraints |       Work      
Src  Proc. InQueue |  Leaves   Expl. | BestBound       BestSol              Gap |   Cuts   InLp Confl. | LpIters     Time

 J       0       0         0   0.00%   -inf            67                 Large        0      0      0         0     0.0s
 S       0       0         0   0.00%   0               24               100.00%        0      0      0         0     0.0s

16.7% inactive integer columns, restarting
Model after restart has 6 rows, 8 cols (4 bin., 0 int., 0 impl., 4 cont., 0 dom.fix.), and 14 nonzeros

         0       0         0   0.00%   20.04           24                16.50%        0      0      0         2     0.0s
         0       0         0   0.00%   20.59701493     24                14.18%        0      0      0         2     0.0s
         1       0         1 100.00%   24              24                 0.00%        0      0      0         4     0.0s

Solving report
  Model             pns_4632517209587689880
  Status            Optimal
  Primal bound      24
  Dual bound        24
  Gap               0% (tolerance: 0.01%)
  P-D integral      0.000681448328138
  Solution status   feasible
                    24 (objective)
                    0 (bound viol.)
                    0 (int. viol.)
                    0 (row viol.)
  Timing            0.03
  Max sub-MIP depth 0
  Nodes             1
  Repair LPs        0
  LP iterations     4
                    0 (strong br.)
                    2 (separation)
                    0 (heuristics)
Writing the solution to C:\Users\jcgca\AppData\Local\Temp\pns_1104557040209382480.sol
Running HiGHS 1.14.0 (git hash: 7df0786): Copyright (c) 2026 under Apache 2.0 license terms
Using BLAS: OpenBLAS 
Command line parsed using CLI11 2.5.0: Copyright (c) 2017-2025 University of Cincinnati
Set option solution_file to "C:\Users\jcgca\AppData\Local\Temp\pns_1084789320915898387.sol"
MIP pns_4173882725824521498 has 9 rows; 12 cols; 21 nonzeros; 6 integer variables (6 binary)
Coefficient ranges:
  Matrix  [1e+00, 1e+03]
  Cost    [1e+00, 4e+00]
  Bound   [1e+00, 1e+00]
  RHS     [1e+01, 1e+01]
Presolving model
9 rows, 12 cols, 21 nonzeros 0s
8 rows, 11 cols, 19 nonzeros 0s
Presolve reductions: rows 8(-1); columns 11(-1); nonzeros 19(-2) 

Solving MIP model with:
   8 rows
   11 cols (6 binary, 0 integer, 0 implied int., 5 continuous, 0 domain fixed)
   19 nonzeros

Src: B => Branching; C => Central rounding; F => Feasibility pump; H => Heuristic;
     I => Shifting; J => Feasibility jump; L => Sub-MIP; P => Empty MIP; R => Randomized rounding;
     S => Solve LP; T => Evaluate node; U => Unbounded; X => User solution; Y => HiGHS solution;
     Z => ZI Round; l => Trivial lower; p => Trivial point; u => Trivial upper; z => Trivial zero

        Nodes      |    B&B Tree     |            Objective Bounds              |  Dynamic Constraints |       Work      
Src  Proc. InQueue |  Leaves   Expl. | BestBound       BestSol              Gap |   Cuts   InLp Confl. | LpIters     Time

 J       0       0         0   0.00%   -inf            67                 Large        0      0      0         0     0.0s
 S       0       0         0   0.00%   0               24               100.00%        0      0      0         0     0.0s

16.7% inactive integer columns, restarting
Model after restart has 6 rows, 8 cols (4 bin., 0 int., 0 impl., 4 cont., 0 dom.fix.), and 14 nonzeros

         0       0         0   0.00%   20.04           24                16.50%        0      0      0         2     0.0s
         0       0         0   0.00%   20.59701493     24                14.18%        0      0      0         2     0.0s
         1       0         1 100.00%   24              24                 0.00%        0      0      0         4     0.0s

Solving report
  Model             pns_4173882725824521498
  Status            Optimal
  Primal bound      24
  Dual bound        24
  Gap               0% (tolerance: 0.01%)
  P-D integral      0.000802141417824
  Solution status   feasible
                    24 (objective)
                    0 (bound viol.)
                    0 (int. viol.)
                    0 (row viol.)
  Timing            0.01
  Max sub-MIP depth 0
  Nodes             1
  Repair LPs        0
  LP iterations     4
                    0 (strong br.)
                    2 (separation)
                    0 (heuristics)
Writing the solution to C:\Users\jcgca\AppData\Local\Temp\pns_1084789320915898387.sol
Running HiGHS 1.14.0 (git hash: 7df0786): Copyright (c) 2026 under Apache 2.0 license terms
Using BLAS: OpenBLAS 
Command line parsed using CLI11 2.5.0: Copyright (c) 2017-2025 University of Cincinnati
Set option solution_file to "C:\Users\jcgca\AppData\Local\Temp\pns_12701576898079462145.sol"
MIP pns_1193631277340567924 has 9 rows; 12 cols; 21 nonzeros; 6 integer variables (6 binary)
Coefficient ranges:
  Matrix  [1e+00, 1e+03]
  Cost    [1e+00, 4e+00]
  Bound   [1e+00, 1e+00]
  RHS     [1e+01, 1e+01]
Presolving model
9 rows, 12 cols, 21 nonzeros 0s
8 rows, 11 cols, 19 nonzeros 0s
Presolve reductions: rows 8(-1); columns 11(-1); nonzeros 19(-2) 

Solving MIP model with:
   8 rows
   11 cols (6 binary, 0 integer, 0 implied int., 5 continuous, 0 domain fixed)
   19 nonzeros

Src: B => Branching; C => Central rounding; F => Feasibility pump; H => Heuristic;
     I => Shifting; J => Feasibility jump; L => Sub-MIP; P => Empty MIP; R => Randomized rounding;
     S => Solve LP; T => Evaluate node; U => Unbounded; X => User solution; Y => HiGHS solution;
     Z => ZI Round; l => Trivial lower; p => Trivial point; u => Trivial upper; z => Trivial zero

        Nodes      |    B&B Tree     |            Objective Bounds              |  Dynamic Constraints |       Work      
Src  Proc. InQueue |  Leaves   Expl. | BestBound       BestSol              Gap |   Cuts   InLp Confl. | LpIters     Time

 J       0       0         0   0.00%   -inf            67                 Large        0      0      0         0     0.0s
 S       0       0         0   0.00%   0               24               100.00%        0      0      0         0     0.0s

16.7% inactive integer columns, restarting
Model after restart has 6 rows, 8 cols (4 bin., 0 int., 0 impl., 4 cont., 0 dom.fix.), and 14 nonzeros

         0       0         0   0.00%   20.04           24                16.50%        0      0      0         2     0.0s
         0       0         0   0.00%   20.59701493     24                14.18%        0      0      0         2     0.0s
         1       0         1 100.00%   24              24                 0.00%        0      0      0         4     0.0s

Solving report
  Model             pns_1193631277340567924
  Status            Optimal
  Primal bound      24
  Dual bound        24
  Gap               0% (tolerance: 0.01%)
  P-D integral      0.00247272488829
  Solution status   feasible
                    24 (objective)
                    0 (bound viol.)
                    0 (int. viol.)
                    0 (row viol.)
  Timing            0.04
  Max sub-MIP depth 0
  Nodes             1
  Repair LPs        0
  LP iterations     4
                    0 (strong br.)
                    2 (separation)
                    0 (heuristics)
Writing the solution to C:\Users\jcgca\AppData\Local\Temp\pns_12701576898079462145.sol
Running HiGHS 1.14.0 (git hash: 7df0786): Copyright (c) 2026 under Apache 2.0 license terms
Using BLAS: OpenBLAS 
Command line parsed using CLI11 2.5.0: Copyright (c) 2017-2025 University of Cincinnati
Set option solution_file to "C:\Users\jcgca\AppData\Local\Temp\pns_10133658232694152549.sol"
MIP pns_12947480835685068868 has 9 rows; 12 cols; 21 nonzeros; 6 integer variables (6 binary)
Coefficient ranges:
  Matrix  [1e+00, 1e+03]
  Cost    [1e+00, 4e+00]
  Bound   [1e+00, 1e+00]
  RHS     [1e+01, 1e+01]
Presolving model
9 rows, 12 cols, 21 nonzeros 0s
8 rows, 11 cols, 19 nonzeros 0s
Presolve reductions: rows 8(-1); columns 11(-1); nonzeros 19(-2) 

Solving MIP model with:
   8 rows
   11 cols (6 binary, 0 integer, 0 implied int., 5 continuous, 0 domain fixed)
   19 nonzeros

Src: B => Branching; C => Central rounding; F => Feasibility pump; H => Heuristic;
     I => Shifting; J => Feasibility jump; L => Sub-MIP; P => Empty MIP; R => Randomized rounding;
     S => Solve LP; T => Evaluate node; U => Unbounded; X => User solution; Y => HiGHS solution;
     Z => ZI Round; l => Trivial lower; p => Trivial point; u => Trivial upper; z => Trivial zero

        Nodes      |    B&B Tree     |            Objective Bounds              |  Dynamic Constraints |       Work      
Src  Proc. InQueue |  Leaves   Expl. | BestBound       BestSol              Gap |   Cuts   InLp Confl. | LpIters     Time

 J       0       0         0   0.00%   -inf            67                 Large        0      0      0         0     0.0s
 S       0       0         0   0.00%   0               24               100.00%        0      0      0         0     0.0s

16.7% inactive integer columns, restarting
Model after restart has 6 rows, 8 cols (4 bin., 0 int., 0 impl., 4 cont., 0 dom.fix.), and 14 nonzeros

         0       0         0   0.00%   20.04           24                16.50%        0      0      0         2     0.0s
         0       0         0   0.00%   20.59701493     24                14.18%        0      0      0         2     0.0s
         1       0         1 100.00%   24              24                 0.00%        0      0      0         4     0.0s

Solving report
  Model             pns_12947480835685068868
  Status            Optimal
  Primal bound      24
  Dual bound        24
  Gap               0% (tolerance: 0.01%)
  P-D integral      0.000849819835172
  Solution status   feasible
                    24 (objective)
                    0 (bound viol.)
                    0 (int. viol.)
                    0 (row viol.)
  Timing            0.01
  Max sub-MIP depth 0
  Nodes             1
  Repair LPs        0
  LP iterations     4
                    0 (strong br.)
                    2 (separation)
                    0 (heuristics)
Writing the solution to C:\Users\jcgca\AppData\Local\Temp\pns_10133658232694152549.sol
Running HiGHS 1.14.0 (git hash: 7df0786): Copyright (c) 2026 under Apache 2.0 license terms
Using BLAS: OpenBLAS 
Command line parsed using CLI11 2.5.0: Copyright (c) 2017-2025 University of Cincinnati
Set option solution_file to "C:\Users\jcgca\AppData\Local\Temp\pns_14167948430620971853.sol"
MIP pns_15188593239310901687 has 9 rows; 12 cols; 21 nonzeros; 6 integer variables (6 binary)
Coefficient ranges:
  Matrix  [1e+00, 1e+03]
  Cost    [1e+00, 4e+00]
  Bound   [1e+00, 1e+00]
  RHS     [1e+01, 1e+01]
Presolving model
9 rows, 12 cols, 21 nonzeros 0s
8 rows, 11 cols, 19 nonzeros 0s
Presolve reductions: rows 8(-1); columns 11(-1); nonzeros 19(-2) 

Solving MIP model with:
   8 rows
   11 cols (6 binary, 0 integer, 0 implied int., 5 continuous, 0 domain fixed)
   19 nonzeros

Src: B => Branching; C => Central rounding; F => Feasibility pump; H => Heuristic;
     I => Shifting; J => Feasibility jump; L => Sub-MIP; P => Empty MIP; R => Randomized rounding;
     S => Solve LP; T => Evaluate node; U => Unbounded; X => User solution; Y => HiGHS solution;
     Z => ZI Round; l => Trivial lower; p => Trivial point; u => Trivial upper; z => Trivial zero

        Nodes      |    B&B Tree     |            Objective Bounds              |  Dynamic Constraints |       Work      
Src  Proc. InQueue |  Leaves   Expl. | BestBound       BestSol              Gap |   Cuts   InLp Confl. | LpIters     Time

 J       0       0         0   0.00%   -inf            67                 Large        0      0      0         0     0.0s
 S       0       0         0   0.00%   0               24               100.00%        0      0      0         0     0.0s

16.7% inactive integer columns, restarting
Model after restart has 6 rows, 8 cols (4 bin., 0 int., 0 impl., 4 cont., 0 dom.fix.), and 14 nonzeros

         0       0         0   0.00%   20.04           24                16.50%        0      0      0         2     0.0s
         0       0         0   0.00%   20.59701493     24                14.18%        0      0      0         2     0.0s
         1       0         1 100.00%   24              24                 0.00%        0      0      0         4     0.0s

Solving report
  Model             pns_15188593239310901687
  Status            Optimal
  Primal bound      24
  Dual bound        24
  Gap               0% (tolerance: 0.01%)
  P-D integral      0.003124477435
  Solution status   feasible
                    24 (objective)
                    0 (bound viol.)
                    0 (int. viol.)
                    0 (row viol.)
  Timing            0.03
  Max sub-MIP depth 0
  Nodes             1
  Repair LPs        0
  LP iterations     4
                    0 (strong br.)
                    2 (separation)
                    0 (heuristics)
Writing the solution to C:\Users\jcgca\AppData\Local\Temp\pns_14167948430620971853.sol
